! DLPNO-CCSD(T) def2-TZVPP def2/J def2-TZVPP/C RIJCOSX VeryTightSCF TightPNO LED
%pal
  nprocs 16
end
%maxcore 6800

*xyz 0 1
Br(1)  0.137000  0.000000  0.000000
C(2)  2.077000  0.000000  0.000000
C(2)  2.760000  1.216000  0.000000
C(2)  4.153000  1.220000  0.000000
C(3)  4.862000  0.020000  0.000000
C(2)  4.171000 -1.190000  0.000000
C(2)  2.777000 -1.206000  0.000000
H(3)  2.243000 -2.146000  0.000000
H(4)  4.714000 -2.125000  0.000000
H(5)  5.943000  0.028000  0.000000
H(6)  4.683000  2.163000  0.000000
H(7)  2.211000  2.148000  0.000000
*
